c Random generated cnf formula, satisfiable: true
p cnf 10 50
-10 -6 1 0
1 5 9 0
-10 4 -5 0
-3 -10 2 0
-8 -6 2 0
3 10 4 0
3 -8 -10 0
-3 -2 -10 0
9 -10 5 0
8 -1 -2 0
1 5 -3 0
-7 -5 -2 0
-10 9 5 0
10 3 6 0
-5 -9 -2 0
7 -2 1 0
-1 -6 8 0
1 7 10 0
-9 -2 -6 0
-1 2 -5 0
7 -6 1 0
9 8 -10 0
2 8 -4 0
10 -2 9 0
-4 8 1 0
-2 10 -1 0
-1 -6 -9 0
4 -2 -6 0
7 -6 -4 0
-1 -10 2 0
8 -9 -2 0
-7 5 -10 0
2 7 5 0
-10 6 -4 0
1 -2 3 0
2 -9 7 0
7 4 2 0
5 -7 1 0
-8 4 1 0
9 4 -7 0
-9 7 6 0
9 -7 10 0
-8 -3 -6 0
-1 9 -3 0
-3 -6 -1 0
2 -8 9 0
-1 -9 5 0
5 9 7 0
-8 -6 -2 0
7 -3 8 0
